nN = 10;
nR = 30;
nH = 1;

a = [[23, 21, 24, 16, 25, 16, 17, 25, 18, 17, 19, 19, 25, 15, 23, 21, 15, 21, 25, 22, 22, 24, 24, 23, 25, 17, 25, 24, 15, 18], [24, 25, 18, 25, 22, 18, 17, 23, 22, 19, 20, 17, 22, 19, 23, 25, 20, 21, 25, 22, 23, 15, 16, 15, 16, 24, 17, 24, 17, 17], [24, 18, 16, 19, 18, 20, 20, 22, 19, 21, 17, 23, 21, 15, 15, 25, 18, 20, 20, 16, 23, 16, 25, 18, 23, 21, 25, 19, 22, 25], [20, 23, 25, 24, 22, 25, 22, 16, 25, 23, 23, 22, 21, 23, 22, 19, 18, 17, 24, 24, 23, 15, 16, 23, 19, 22, 20, 21, 16, 19], [16, 17, 16, 24, 25, 19, 24, 20, 15, 23, 21, 16, 16, 20, 25, 18, 16, 20, 20, 19, 15, 20, 21, 18, 23, 21, 18, 25, 24, 17], [17, 21, 19, 21, 15, 20, 25, 16, 20, 16, 23, 19, 20, 18, 19, 16, 15, 19, 15, 19, 17, 21, 17, 19, 18, 19, 20, 22, 20, 24], [21, 19, 20, 23, 24, 22, 15, 15, 17, 22, 16, 21, 25, 22, 15, 22, 18, 17, 22, 25, 20, 21, 21, 24, 22, 22, 18, 16, 17, 25], [23, 20, 19, 23, 16, 19, 24, 25, 15, 23, 21, 15, 21, 19, 23, 19, 25, 24, 18, 24, 17, 22, 22, 19, 25, 17, 25, 23, 15, 17], [19, 25, 23, 18, 15, 20, 16, 16, 19, 24, 24, 24, 18, 21, 18, 18, 15, 18, 17, 23, 15, 15, 15, 16, 23, 15, 20, 16, 16, 17], [20, 17, 23, 17, 19, 18, 21, 24, 19, 20, 16, 21, 15, 25, 24, 16, 20, 18, 23, 15, 24, 18, 18, 17, 21, 23, 16, 22, 20, 25]];
c = [[[0, 0, 0, 0, 0, 0, 0, 0, 0, 0, 0, 0, 0, 0, 0, 0, 0, 0, 0, 0, 0, 0, 0, 0, 0, 0, 0, 0, 0, 0], [33, 34, 43, 34, 30, 33, 43, 49, 35, 33, 30, 31, 39, 42, 38, 31, 41, 33, 39, 44, 49, 47, 42, 40, 45, 45, 43, 43, 43, 41], [46, 33, 31, 37, 44, 47, 34, 41, 41, 48, 36, 43, 44, 42, 43, 37, 44, 46, 44, 41, 35, 39, 32, 43, 38, 48, 36, 35, 49, 43], [37, 37, 36, 33, 43, 35, 48, 39, 48, 40, 49, 32, 47, 30, 48, 33, 39, 46, 41, 50, 37, 48, 45, 37, 45, 35, 48, 31, 35, 49], [40, 42, 41, 41, 40, 48, 38, 34, 47, 48, 30, 40, 38, 32, 38, 31, 45, 44, 40, 32, 44, 45, 46, 45, 46, 46, 30, 49, 32, 38], [32, 45, 39, 50, 45, 30, 34, 48, 48, 35, 30, 47, 43, 42, 49, 43, 39, 41, 41, 32, 47, 45, 43, 36, 36, 49, 46, 49, 42, 47], [37, 39, 37, 38, 33, 43, 37, 37, 46, 32, 48, 33, 34, 47, 40, 44, 44, 34, 44, 46, 41, 49, 36, 39, 34, 42, 38, 48, 45, 46], [37, 30, 45, 33, 36, 30, 32, 45, 41, 34, 50, 38, 42, 47, 40, 31, 33, 47, 35, 45, 37, 41, 33, 47, 41, 44, 43, 50, 43, 50], [49, 41, 32, 30, 36, 36, 33, 34, 34, 47, 39, 46, 35, 49, 37, 41, 43, 34, 35, 40, 42, 44, 43, 42, 38, 49, 37, 39, 43, 43], [48, 42, 46, 48, 42, 46, 41, 46, 47, 44, 46, 37, 42, 40, 42, 38, 49, 36, 45, 33, 47, 32, 39, 35, 36, 41, 50, 34, 31, 47]], [[0, 0, 0, 0, 0, 0, 0, 0, 0, 0, 0, 0, 0, 0, 0, 0, 0, 0, 0, 0, 0, 0, 0, 0, 0, 0, 0, 0, 0, 0], [0, 0, 0, 0, 0, 0, 0, 0, 0, 0, 0, 0, 0, 0, 0, 0, 0, 0, 0, 0, 0, 0, 0, 0, 0, 0, 0, 0, 0, 0], [30, 50, 48, 30, 47, 40, 43, 31, 46, 30, 48, 49, 45, 42, 36, 40, 50, 38, 41, 35, 37, 43, 39, 42, 32, 49, 43, 37, 50, 50], [39, 32, 48, 34, 35, 50, 46, 49, 36, 46, 31, 48, 42, 34, 49, 47, 31, 50, 38, 43, 41, 35, 31, 34, 49, 38, 35, 40, 49, 33], [38, 36, 49, 46, 43, 32, 49, 36, 48, 39, 39, 46, 44, 37, 49, 37, 36, 33, 31, 41, 31, 36, 49, 39, 39, 39, 49, 36, 45, 50], [45, 35, 48, 46, 39, 48, 32, 45, 37, 37, 31, 41, 34, 44, 48, 50, 40, 40, 48, 30, 49, 38, 37, 43, 44, 43, 33, 31, 40, 43], [43, 41, 46, 49, 49, 49, 36, 46, 35, 47, 39, 50, 30, 33, 36, 43, 46, 37, 35, 46, 43, 41, 33, 33, 34, 36, 46, 50, 39, 44], [39, 34, 33, 38, 45, 36, 36, 49, 42, 47, 42, 32, 36, 34, 32, 35, 48, 46, 40, 50, 32, 40, 46, 45, 47, 39, 32, 41, 37, 36], [46, 44, 37, 36, 37, 43, 48, 40, 36, 36, 40, 35, 34, 50, 46, 35, 32, 47, 32, 41, 31, 33, 50, 46, 40, 50, 37, 36, 41, 41], [33, 43, 45, 34, 39, 43, 38, 33, 43, 48, 30, 39, 43, 38, 37, 46, 43, 30, 38, 47, 46, 36, 33, 41, 49, 46, 39, 37, 41, 38]], [[0, 0, 0, 0, 0, 0, 0, 0, 0, 0, 0, 0, 0, 0, 0, 0, 0, 0, 0, 0, 0, 0, 0, 0, 0, 0, 0, 0, 0, 0], [0, 0, 0, 0, 0, 0, 0, 0, 0, 0, 0, 0, 0, 0, 0, 0, 0, 0, 0, 0, 0, 0, 0, 0, 0, 0, 0, 0, 0, 0], [0, 0, 0, 0, 0, 0, 0, 0, 0, 0, 0, 0, 0, 0, 0, 0, 0, 0, 0, 0, 0, 0, 0, 0, 0, 0, 0, 0, 0, 0], [36, 33, 37, 31, 30, 49, 46, 49, 33, 50, 31, 34, 30, 45, 50, 32, 48, 47, 36, 42, 37, 42, 50, 33, 38, 41, 48, 41, 44, 37], [40, 49, 37, 39, 39, 32, 32, 36, 32, 30, 48, 46, 35, 36, 42, 31, 45, 38, 46, 46, 45, 46, 44, 46, 39, 50, 39, 33, 30, 50], [45, 39, 40, 44, 33, 36, 30, 45, 42, 47, 43, 43, 48, 49, 32, 42, 37, 42, 36, 39, 39, 33, 32, 47, 35, 33, 48, 37, 48, 30], [43, 33, 35, 30, 36, 38, 47, 42, 31, 42, 45, 38, 50, 43, 35, 33, 47, 44, 48, 32, 34, 47, 34, 49, 33, 41, 31, 33, 46, 46], [32, 50, 40, 37, 31, 42, 33, 37, 40, 34, 41, 48, 48, 34, 42, 36, 32, 48, 46, 32, 41, 33, 46, 30, 36, 35, 33, 50, 46, 41], [49, 32, 44, 39, 46, 50, 32, 43, 45, 36, 47, 49, 43, 47, 47, 41, 45, 39, 44, 47, 40, 47, 30, 39, 37, 46, 32, 30, 41, 41], [43, 33, 50, 39, 46, 50, 33, 50, 37, 31, 37, 37, 42, 39, 42, 42, 41, 40, 44, 37, 44, 42, 40, 48, 49, 50, 46, 35, 37, 44]], [[0, 0, 0, 0, 0, 0, 0, 0, 0, 0, 0, 0, 0, 0, 0, 0, 0, 0, 0, 0, 0, 0, 0, 0, 0, 0, 0, 0, 0, 0], [0, 0, 0, 0, 0, 0, 0, 0, 0, 0, 0, 0, 0, 0, 0, 0, 0, 0, 0, 0, 0, 0, 0, 0, 0, 0, 0, 0, 0, 0], [0, 0, 0, 0, 0, 0, 0, 0, 0, 0, 0, 0, 0, 0, 0, 0, 0, 0, 0, 0, 0, 0, 0, 0, 0, 0, 0, 0, 0, 0], [0, 0, 0, 0, 0, 0, 0, 0, 0, 0, 0, 0, 0, 0, 0, 0, 0, 0, 0, 0, 0, 0, 0, 0, 0, 0, 0, 0, 0, 0], [47, 39, 41, 35, 45, 37, 39, 47, 44, 38, 36, 42, 42, 31, 38, 49, 32, 43, 45, 50, 31, 43, 31, 39, 35, 47, 40, 37, 45, 36], [40, 42, 37, 32, 45, 43, 34, 33, 39, 41, 34, 36, 45, 42, 48, 47, 40, 41, 43, 30, 44, 39, 32, 41, 46, 47, 48, 47, 50, 42], [42, 50, 38, 30, 40, 39, 31, 50, 32, 46, 50, 42, 35, 31, 40, 34, 44, 36, 40, 43, 44, 36, 41, 30, 31, 35, 32, 33, 40, 50], [30, 41, 50, 47, 45, 34, 30, 37, 34, 44, 30, 34, 39, 33, 35, 37, 31, 30, 31, 37, 37, 41, 48, 50, 38, 41, 37, 45, 39, 47], [43, 38, 50, 32, 34, 44, 43, 31, 49, 38, 50, 47, 41, 50, 38, 48, 35, 47, 42, 49, 36, 35, 30, 43, 30, 40, 48, 36, 35, 44], [49, 50, 30, 38, 45, 32, 31, 49, 50, 48, 41, 30, 45, 39, 46, 40, 50, 32, 32, 48, 34, 30, 49, 48, 44, 46, 47, 50, 30, 38]], [[0, 0, 0, 0, 0, 0, 0, 0, 0, 0, 0, 0, 0, 0, 0, 0, 0, 0, 0, 0, 0, 0, 0, 0, 0, 0, 0, 0, 0, 0], [0, 0, 0, 0, 0, 0, 0, 0, 0, 0, 0, 0, 0, 0, 0, 0, 0, 0, 0, 0, 0, 0, 0, 0, 0, 0, 0, 0, 0, 0], [0, 0, 0, 0, 0, 0, 0, 0, 0, 0, 0, 0, 0, 0, 0, 0, 0, 0, 0, 0, 0, 0, 0, 0, 0, 0, 0, 0, 0, 0], [0, 0, 0, 0, 0, 0, 0, 0, 0, 0, 0, 0, 0, 0, 0, 0, 0, 0, 0, 0, 0, 0, 0, 0, 0, 0, 0, 0, 0, 0], [0, 0, 0, 0, 0, 0, 0, 0, 0, 0, 0, 0, 0, 0, 0, 0, 0, 0, 0, 0, 0, 0, 0, 0, 0, 0, 0, 0, 0, 0], [42, 37, 40, 31, 49, 48, 36, 37, 40, 50, 30, 44, 32, 40, 48, 48, 42, 40, 39, 30, 42, 47, 45, 40, 32, 36, 44, 37, 36, 46], [48, 38, 40, 35, 49, 35, 45, 46, 31, 30, 38, 32, 37, 34, 46, 45, 42, 44, 30, 38, 47, 31, 36, 33, 33, 45, 36, 37, 45, 36], [41, 35, 46, 33, 46, 38, 43, 36, 35, 49, 49, 32, 39, 31, 40, 37, 36, 37, 48, 32, 37, 47, 39, 34, 30, 34, 45, 35, 33, 37], [35, 50, 40, 49, 38, 36, 31, 34, 40, 42, 45, 39, 38, 33, 34, 41, 36, 33, 38, 31, 45, 42, 34, 30, 44, 37, 30, 34, 32, 30], [41, 44, 43, 30, 42, 50, 42, 40, 47, 33, 38, 49, 36, 47, 37, 40, 46, 32, 48, 43, 41, 30, 49, 43, 40, 37, 39, 50, 42, 35]], [[0, 0, 0, 0, 0, 0, 0, 0, 0, 0, 0, 0, 0, 0, 0, 0, 0, 0, 0, 0, 0, 0, 0, 0, 0, 0, 0, 0, 0, 0], [0, 0, 0, 0, 0, 0, 0, 0, 0, 0, 0, 0, 0, 0, 0, 0, 0, 0, 0, 0, 0, 0, 0, 0, 0, 0, 0, 0, 0, 0], [0, 0, 0, 0, 0, 0, 0, 0, 0, 0, 0, 0, 0, 0, 0, 0, 0, 0, 0, 0, 0, 0, 0, 0, 0, 0, 0, 0, 0, 0], [0, 0, 0, 0, 0, 0, 0, 0, 0, 0, 0, 0, 0, 0, 0, 0, 0, 0, 0, 0, 0, 0, 0, 0, 0, 0, 0, 0, 0, 0], [0, 0, 0, 0, 0, 0, 0, 0, 0, 0, 0, 0, 0, 0, 0, 0, 0, 0, 0, 0, 0, 0, 0, 0, 0, 0, 0, 0, 0, 0], [0, 0, 0, 0, 0, 0, 0, 0, 0, 0, 0, 0, 0, 0, 0, 0, 0, 0, 0, 0, 0, 0, 0, 0, 0, 0, 0, 0, 0, 0], [35, 40, 48, 46, 40, 50, 39, 46, 50, 50, 42, 49, 32, 31, 40, 31, 46, 34, 35, 34, 34, 43, 44, 50, 34, 36, 47, 30, 40, 38], [36, 41, 44, 34, 46, 44, 45, 34, 31, 44, 36, 36, 38, 50, 31, 31, 40, 43, 50, 40, 46, 47, 36, 36, 34, 44, 38, 46, 45, 40], [34, 42, 49, 34, 45, 48, 40, 49, 46, 42, 50, 32, 39, 34, 32, 41, 38, 33, 36, 41, 40, 43, 43, 41, 39, 35, 45, 38, 47, 39], [30, 36, 30, 47, 42, 32, 42, 35, 38, 47, 44, 37, 45, 30, 45, 50, 37, 37, 38, 41, 38, 45, 43, 36, 37, 49, 39, 47, 42, 31]], [[0, 0, 0, 0, 0, 0, 0, 0, 0, 0, 0, 0, 0, 0, 0, 0, 0, 0, 0, 0, 0, 0, 0, 0, 0, 0, 0, 0, 0, 0], [0, 0, 0, 0, 0, 0, 0, 0, 0, 0, 0, 0, 0, 0, 0, 0, 0, 0, 0, 0, 0, 0, 0, 0, 0, 0, 0, 0, 0, 0], [0, 0, 0, 0, 0, 0, 0, 0, 0, 0, 0, 0, 0, 0, 0, 0, 0, 0, 0, 0, 0, 0, 0, 0, 0, 0, 0, 0, 0, 0], [0, 0, 0, 0, 0, 0, 0, 0, 0, 0, 0, 0, 0, 0, 0, 0, 0, 0, 0, 0, 0, 0, 0, 0, 0, 0, 0, 0, 0, 0], [0, 0, 0, 0, 0, 0, 0, 0, 0, 0, 0, 0, 0, 0, 0, 0, 0, 0, 0, 0, 0, 0, 0, 0, 0, 0, 0, 0, 0, 0], [0, 0, 0, 0, 0, 0, 0, 0, 0, 0, 0, 0, 0, 0, 0, 0, 0, 0, 0, 0, 0, 0, 0, 0, 0, 0, 0, 0, 0, 0], [0, 0, 0, 0, 0, 0, 0, 0, 0, 0, 0, 0, 0, 0, 0, 0, 0, 0, 0, 0, 0, 0, 0, 0, 0, 0, 0, 0, 0, 0], [47, 34, 36, 33, 36, 35, 50, 31, 46, 33, 49, 40, 50, 30, 40, 50, 37, 36, 48, 45, 40, 35, 50, 36, 47, 49, 45, 39, 50, 30], [45, 42, 43, 32, 35, 37, 34, 45, 30, 48, 30, 35, 32, 43, 46, 46, 32, 35, 49, 49, 43, 33, 48, 43, 46, 40, 50, 45, 47, 46], [39, 34, 37, 33, 34, 46, 47, 45, 47, 35, 41, 49, 43, 35, 35, 50, 33, 43, 48, 37, 44, 33, 41, 42, 31, 38, 39, 46, 40, 36]], [[0, 0, 0, 0, 0, 0, 0, 0, 0, 0, 0, 0, 0, 0, 0, 0, 0, 0, 0, 0, 0, 0, 0, 0, 0, 0, 0, 0, 0, 0], [0, 0, 0, 0, 0, 0, 0, 0, 0, 0, 0, 0, 0, 0, 0, 0, 0, 0, 0, 0, 0, 0, 0, 0, 0, 0, 0, 0, 0, 0], [0, 0, 0, 0, 0, 0, 0, 0, 0, 0, 0, 0, 0, 0, 0, 0, 0, 0, 0, 0, 0, 0, 0, 0, 0, 0, 0, 0, 0, 0], [0, 0, 0, 0, 0, 0, 0, 0, 0, 0, 0, 0, 0, 0, 0, 0, 0, 0, 0, 0, 0, 0, 0, 0, 0, 0, 0, 0, 0, 0], [0, 0, 0, 0, 0, 0, 0, 0, 0, 0, 0, 0, 0, 0, 0, 0, 0, 0, 0, 0, 0, 0, 0, 0, 0, 0, 0, 0, 0, 0], [0, 0, 0, 0, 0, 0, 0, 0, 0, 0, 0, 0, 0, 0, 0, 0, 0, 0, 0, 0, 0, 0, 0, 0, 0, 0, 0, 0, 0, 0], [0, 0, 0, 0, 0, 0, 0, 0, 0, 0, 0, 0, 0, 0, 0, 0, 0, 0, 0, 0, 0, 0, 0, 0, 0, 0, 0, 0, 0, 0], [0, 0, 0, 0, 0, 0, 0, 0, 0, 0, 0, 0, 0, 0, 0, 0, 0, 0, 0, 0, 0, 0, 0, 0, 0, 0, 0, 0, 0, 0], [31, 31, 43, 39, 48, 34, 50, 33, 37, 34, 30, 35, 37, 41, 38, 41, 44, 39, 38, 37, 42, 46, 36, 45, 50, 49, 31, 49, 30, 34], [48, 46, 34, 48, 38, 40, 45, 47, 34, 38, 46, 46, 36, 41, 50, 31, 42, 34, 33, 49, 48, 49, 37, 35, 44, 33, 39, 42, 41, 42]], [[0, 0, 0, 0, 0, 0, 0, 0, 0, 0, 0, 0, 0, 0, 0, 0, 0, 0, 0, 0, 0, 0, 0, 0, 0, 0, 0, 0, 0, 0], [0, 0, 0, 0, 0, 0, 0, 0, 0, 0, 0, 0, 0, 0, 0, 0, 0, 0, 0, 0, 0, 0, 0, 0, 0, 0, 0, 0, 0, 0], [0, 0, 0, 0, 0, 0, 0, 0, 0, 0, 0, 0, 0, 0, 0, 0, 0, 0, 0, 0, 0, 0, 0, 0, 0, 0, 0, 0, 0, 0], [0, 0, 0, 0, 0, 0, 0, 0, 0, 0, 0, 0, 0, 0, 0, 0, 0, 0, 0, 0, 0, 0, 0, 0, 0, 0, 0, 0, 0, 0], [0, 0, 0, 0, 0, 0, 0, 0, 0, 0, 0, 0, 0, 0, 0, 0, 0, 0, 0, 0, 0, 0, 0, 0, 0, 0, 0, 0, 0, 0], [0, 0, 0, 0, 0, 0, 0, 0, 0, 0, 0, 0, 0, 0, 0, 0, 0, 0, 0, 0, 0, 0, 0, 0, 0, 0, 0, 0, 0, 0], [0, 0, 0, 0, 0, 0, 0, 0, 0, 0, 0, 0, 0, 0, 0, 0, 0, 0, 0, 0, 0, 0, 0, 0, 0, 0, 0, 0, 0, 0], [0, 0, 0, 0, 0, 0, 0, 0, 0, 0, 0, 0, 0, 0, 0, 0, 0, 0, 0, 0, 0, 0, 0, 0, 0, 0, 0, 0, 0, 0], [0, 0, 0, 0, 0, 0, 0, 0, 0, 0, 0, 0, 0, 0, 0, 0, 0, 0, 0, 0, 0, 0, 0, 0, 0, 0, 0, 0, 0, 0], [42, 42, 34, 32, 44, 47, 46, 43, 37, 50, 48, 38, 40, 42, 45, 35, 38, 45, 43, 44, 50, 42, 33, 32, 33, 35, 43, 49, 49, 48]], [[0, 0, 0, 0, 0, 0, 0, 0, 0, 0, 0, 0, 0, 0, 0, 0, 0, 0, 0, 0, 0, 0, 0, 0, 0, 0, 0, 0, 0, 0], [0, 0, 0, 0, 0, 0, 0, 0, 0, 0, 0, 0, 0, 0, 0, 0, 0, 0, 0, 0, 0, 0, 0, 0, 0, 0, 0, 0, 0, 0], [0, 0, 0, 0, 0, 0, 0, 0, 0, 0, 0, 0, 0, 0, 0, 0, 0, 0, 0, 0, 0, 0, 0, 0, 0, 0, 0, 0, 0, 0], [0, 0, 0, 0, 0, 0, 0, 0, 0, 0, 0, 0, 0, 0, 0, 0, 0, 0, 0, 0, 0, 0, 0, 0, 0, 0, 0, 0, 0, 0], [0, 0, 0, 0, 0, 0, 0, 0, 0, 0, 0, 0, 0, 0, 0, 0, 0, 0, 0, 0, 0, 0, 0, 0, 0, 0, 0, 0, 0, 0], [0, 0, 0, 0, 0, 0, 0, 0, 0, 0, 0, 0, 0, 0, 0, 0, 0, 0, 0, 0, 0, 0, 0, 0, 0, 0, 0, 0, 0, 0], [0, 0, 0, 0, 0, 0, 0, 0, 0, 0, 0, 0, 0, 0, 0, 0, 0, 0, 0, 0, 0, 0, 0, 0, 0, 0, 0, 0, 0, 0], [0, 0, 0, 0, 0, 0, 0, 0, 0, 0, 0, 0, 0, 0, 0, 0, 0, 0, 0, 0, 0, 0, 0, 0, 0, 0, 0, 0, 0, 0], [0, 0, 0, 0, 0, 0, 0, 0, 0, 0, 0, 0, 0, 0, 0, 0, 0, 0, 0, 0, 0, 0, 0, 0, 0, 0, 0, 0, 0, 0], [0, 0, 0, 0, 0, 0, 0, 0, 0, 0, 0, 0, 0, 0, 0, 0, 0, 0, 0, 0, 0, 0, 0, 0, 0, 0, 0, 0, 0, 0]]];

q = [[[10], [23], [8], [21], [24], [19], [9], [7], [20], [17], [22], [25], [22], [12], [23], [9], [7], [14], [24], [6], [22], [11], [18], [16], [15], [7], [18], [12], [18], [21]], [[15], [9], [24], [13], [12], [9], [23], [20], [16], [25], [22], [25], [20], [15], [14], [17], [17], [9], [25], [16], [16], [10], [25], [10], [15], [21], [5], [22], [18], [10]], [[5], [5], [8], [14], [8], [15], [9], [18], [7], [7], [13], [7], [9], [11], [24], [8], [8], [5], [17], [21], [19], [16], [21], [14], [9], [23], [13], [22], [5], [7]], [[14], [5], [11], [8], [11], [22], [17], [23], [11], [7], [8], [10], [23], [15], [13], [24], [12], [14], [11], [7], [20], [22], [12], [23], [14], [19], [16], [24], [16], [18]], [[10], [5], [12], [10], [21], [13], [14], [21], [23], [19], [8], [13], [14], [23], [6], [14], [22], [18], [17], [6], [9], [23], [8], [6], [15], [11], [13], [7], [24], [9]], [[16], [22], [7], [22], [13], [12], [13], [20], [7], [16], [17], [16], [8], [25], [6], [6], [18], [24], [15], [18], [17], [22], [25], [14], [22], [6], [12], [12], [9], [15]], [[20], [20], [15], [6], [20], [8], [16], [21], [18], [7], [5], [16], [18], [15], [16], [7], [25], [5], [7], [6], [19], [8], [10], [14], [19], [22], [9], [8], [23], [9]], [[19], [22], [25], [25], [7], [17], [19], [20], [13], [11], [22], [14], [20], [19], [17], [24], [17], [21], [11], [19], [10], [12], [8], [15], [24], [20], [22], [23], [18], [24]], [[24], [13], [16], [5], [14], [12], [23], [25], [8], [23], [19], [16], [8], [25], [7], [15], [14], [22], [20], [21], [12], [6], [15], [22], [7], [8], [20], [13], [10], [17]], [[23], [16], [15], [17], [22], [5], [9], [10], [19], [15], [20], [21], [18], [19], [18], [7], [14], [13], [25], [11], [6], [6], [5], [19], [23], [10], [19], [16], [21], [24]]];
Q = [[38], [39], [29], [36], [33], [36], [32], [43], [36], [37]];
